 vasp.6.1.1 19Jun20 (build Mar 17 2021 16:41:16) complex

 executed on             LinuxIFC date 2024.10.24  16:13:53

 INCAR:
 POTCAR:    PAW_PBE C 08Apr2002
 POTCAR:    PAW_PBE Sc 04Feb2005
 POTCAR:    PAW_PBE C 08Apr2002
   VRHFIN =C: s2p2

   TITEL  = PAW_PBE C 08Apr2002
   POMASS =   12.011; ZVAL   =    4.000    mass and valenz
   ENMAX  =  400.000; ENMIN  =  300.000 eV

   TITEL  = PAW_PBE Sc 04Feb2005
   POMASS =   44.956; ZVAL   =    3.000    mass and valenz
   ENMAX  =  154.763; ENMIN  =  116.072 eV

 Optimization of the real space projectors (new method)

 maximal supplied QI-value         = 25.13
 optimisation between [QCUT,QGAM] = [ 12.82, 25.89] = [ 46.01,187.66] Ry
 Optimized for a Real-space Cutoff    1.05 Angstroem

   l    n(q)    QCUT    max X(q) W(low)/X(q) W(high)/X(q)  e(spline)
   0      8    12.818   115.676    0.29E-03    0.27E-03    0.18E-06
   0      8    12.818    87.132    0.29E-03    0.27E-03    0.18E-06
   1      8    12.818     4.429    0.50E-03    0.25E-03    0.16E-06
   1      8    12.818     2.733    0.38E-03    0.20E-03    0.14E-06
 Optimization of the real space projectors (new method)

 maximal supplied QI-value         = 12.47
 optimisation between [QCUT,QGAM] = [ 12.47, 26.07] = [ 43.56,190.27] Ry
 Optimized for a Real-space Cutoff    1.69 Angstroem

   l    n(q)    QCUT    max X(q) W(low)/X(q) W(high)/X(q)  e(spline)
   2     12    12.472   127.680    0.26E-03    0.98E-04    0.25E-05
   2     12    12.472   113.778    0.26E-03    0.99E-04    0.25E-05
   0     13    12.472    22.778    0.61E-04    0.11E-04    0.26E-05
   0     13    12.472    11.292    0.35E-04    0.74E-05    0.19E-05
   1     13    12.472    11.256    0.79E-05    0.12E-04    0.25E-06
 WARNING: PSMAXN for non-local potential too small
          PSMAXN should be >   13.0615000909685       NTYP=           2
  PAW_PBE C 08Apr2002                   :
  PAW_PBE Sc 04Feb2005                  :

 POSCAR: Sc2C_R3m
  positions in direct lattice
  velocities in cartesian coordinates
 exchange correlation table for  LEXCH =        8
   RHO(1)=    0.500       N(1)  =     2000
   RHO(2)=  100.500       N(2)  =     4000

 VTST: version 3.2, (02/03/18)

 CHAIN: initializing optimizer

 OPT: Using VASP Dynamics algorithm
 CHAIN: Read ICHAIN            0

 POSCAR: Sc2C_R3m
  positions in direct lattice
  velocities in cartesian coordinates

 ion  position               nearest neighbor table
   1  0.333  0.667  0.049-   5 2.29   5 2.29   5 2.29   4 2.36   4 2.36   4 2.36
   2  0.667  0.333  0.272-   3 2.29   3 2.29   3 2.29   6 2.36   6 2.36   6 2.36
   3  0.000  0.000  0.319-   2 2.29   2 2.29   2 2.29   6 3.18   6 3.18   6 3.18
   4  0.667  0.333  0.101-   1 2.36   1 2.36   1 2.36   5 3.18   5 3.18   5 3.18   6 3.54   6 3.54
                             6 3.54
   5  0.000  0.000  0.001-   1 2.29   1 2.29   1 2.29   4 3.18   4 3.18   4 3.18
   6  0.333  0.667  0.219-   2 2.36   2 2.36   2 2.36   3 3.18   3 3.18   3 3.18   4 3.54   4 3.54
                             4 3.54

  LATTYP: Found a hexagonal cell.
 ALAT       =     3.3958294391
 C/A-ratio  =     7.3619716326

  Lattice vectors:

 A1 = (   3.3958294392,   0.0000000000,   0.0000000000)
 A2 = (  -1.6979147196,   2.9408745612,   0.0000000000)
 A3 = (   0.0000000000,   0.0000000000,  25.0000000000)

Analysis of symmetry for initial positions (statically):
 Subroutine PRICEL returns:
 Original cell was already a primitive cell.

 Routine SETGRP: Setting up the symmetry group for a
 hexagonal supercell.

 Subroutine GETGRP returns: Found 12 space group operations
 (whereof  6 operations were pure point group operations)
 out of a pool of 24 trial point group operations.

The static configuration has the point symmetry C_3v.
 The point group associated with its full space group is D_3d.

Analysis of symmetry for dynamics (positions and initial velocities):
 Subroutine PRICEL returns:
 Original cell was already a primitive cell.

 Routine SETGRP: Setting up the symmetry group for a
 hexagonal supercell.

 Subroutine GETGRP returns: Found 12 space group operations
 (whereof  6 operations were pure point group operations)
 out of a pool of 24 trial point group operations.

The dynamic configuration has the point symmetry C_3v.
 The point group associated with its full space group is D_3d.

 Subroutine INISYM returns: Found 12 space group operations
 (whereof  6 operations are pure point group operations),
 and found     1 'primitive' translations

                                     Primitive cell

  volume of cell :     249.6677

  direct lattice vectors                    reciprocal lattice vectors
     3.395829439  0.000000000  0.000000000     0.294478865  0.170017452  0.000000000
    -1.697914720  2.940874561  0.000000000     0.000000000  0.340034904  0.000000000
     0.000000000  0.000000000 25.000000000     0.000000000  0.000000000  0.040000000

  length of vectors
     3.395829439  3.395829439 25.000000000     0.340034904  0.340034904  0.040000000

  position of ions in fractional coordinates (direct lattice)
     0.333333343  0.666666686  0.048655833
     0.666666687  0.333333343  0.271770351
     0.000000000  0.000000000  0.319057618
     0.666666687  0.333333343  0.101280661
     0.000000000  0.000000000  0.001368223
     0.333333343  0.666666686  0.219145184

  ion indices of the primitive-cell ions
   primitive index   ion index
                 1           1
                 2           2
                 3           3
                 4           4
                 5           5
                 6           6

 KPOINTS: 38x38x38            Comment

Automatic generation of k-mesh.
Space group operators:
 irot       det(A)        alpha          n_x          n_y          n_z        tau_x        tau_y        tau_z
    1     1.000000     0.000000     1.000000     0.000000     0.000000     0.000000     0.000000     0.000000
    2     1.000000   120.000000     0.000000     0.000000    -1.000000     0.000000     0.000000     0.000000
    3     1.000000   120.000000     0.000000     0.000000     1.000000     0.000000     0.000000     0.000000
    4    -1.000000   179.999999     1.000000     0.000000     0.000000     0.000000     0.000000     0.000000
    5    -1.000000   180.000000     0.500000    -0.866025     0.000000     0.000000     0.000000     0.000000
    6    -1.000000   180.000000    -0.500000    -0.866025     0.000000     0.000000     0.000000     0.000000
    7    -1.000000     0.000000     1.000000     0.000000     0.000000     0.000000     0.000000     0.320426
    8    -1.000000   120.000000     0.000000     0.000000    -1.000000     0.000000     0.000000     0.320426
    9    -1.000000   120.000000     0.000000     0.000000     1.000000     0.000000     0.000000     0.320426
   10     1.000000   179.999999     1.000000     0.000000     0.000000     0.000000     0.000000     0.320426
   11     1.000000   180.000000     0.500000    -0.866025     0.000000     0.000000     0.000000     0.320426
   12     1.000000   180.000000    -0.500000    -0.866025     0.000000     0.000000     0.000000     0.320426
 TETIRR: Found     76 inequivalent tetrahedra from      864

 Subroutine IBZKPT returns following result:

 Found     19 irreducible k-points:

 Following reciprocal coordinates:
            Coordinates               Weight
  0.000000  0.000000  0.000000      1.000000
  0.083333  0.000000  0.000000      6.000000
  0.166667 -0.000000  0.000000      6.000000
  0.250000 -0.000000  0.000000      6.000000
  0.333333 -0.000000  0.000000      6.000000
  0.416667 -0.000000  0.000000      6.000000
  0.500000 -0.000000  0.000000      3.000000
  0.083333  0.083333  0.000000      6.000000
  0.166667  0.083333  0.000000     12.000000
  0.250000  0.083333  0.000000     12.000000
  0.333333  0.083333  0.000000     12.000000
  0.416667  0.083333  0.000000     12.000000
  0.166667  0.166667  0.000000      6.000000
  0.250000  0.166667  0.000000     12.000000
  0.333333  0.166667  0.000000     12.000000
  0.416667  0.166667  0.000000      6.000000
  0.250000  0.250000  0.000000      6.000000
  0.333333  0.250000  0.000000     12.000000
  0.333333  0.333333  0.000000      2.000000

 Following cartesian coordinates:
            Coordinates               Weight
  0.000000  0.000000  0.000000      1.000000
  0.024540  0.014168  0.000000      6.000000
  0.049080  0.028336  0.000000      6.000000
  0.073620  0.042504  0.000000      6.000000
  0.098160  0.056672  0.000000      6.000000
  0.122700  0.070841  0.000000      6.000000
  0.147239  0.085009  0.000000      3.000000
  0.024540  0.042504  0.000000      6.000000
  0.049080  0.056672  0.000000     12.000000
  0.073620  0.070841  0.000000     12.000000
  0.098160  0.085009  0.000000     12.000000
  0.122700  0.099177  0.000000     12.000000
  0.049080  0.085009  0.000000      6.000000
  0.073620  0.099177  0.000000     12.000000
  0.098160  0.113345  0.000000     12.000000
  0.122700  0.127513  0.000000      6.000000
  0.073620  0.127513  0.000000      6.000000
  0.098160  0.141681  0.000000     12.000000
  0.098160  0.170017  0.000000      2.000000

 SYSTEM =  TB-Sic
 POSCAR =  Sc2C_R3m

 Startparameter for this run:
   NWRITE =      2    write-flag & timer
   PREC   = normal    normal or accurate (medium, high low for compatibility)
   ISTART =      0    job   : 0-new  1-cont  2-samecut
   ICHARG =      2    charge: 1-file 2-atom 10-const
   ISPIN  =      1    spin polarized calculation?
   LNONCOLLINEAR =      F non collinear calculations
   LSORBIT =      F    spin-orbit coupling
   INIWAV =      1    electr: 0-lowe 1-rand  2-diag
   LASPH  =      F    aspherical Exc in radial PAW
   METAGGA=      F    non-selfconsistent MetaGGA calc.

 Electronic Relaxation 1
   ENCUT  =  650.0 eV  47.77 Ry    6.91 a.u.   7.06  7.06 51.97*2*pi/ulx,y,z
   ENINI  =  650.0     initial cutoff
   ENAUG  =  644.9 eV  augmentation charge cutoff
   NELM   =    100;   NELMIN=  2; NELMDL= -5     # of ELM steps
   EDIFF  = 0.1E-04   stopping-criterion for ELM
   LREAL  =      T    real-space projection
   NLSPLINE    = F    spline interpolate recip. space projectors
   LCOMPAT=      F    compatible to vasp.4.4
   GGA_COMPAT  = T    GGA compatible to vasp.4.4-vasp.4.6
   LMAXPAW     = -100 max onsite density
   LMAXMIX     =    4 max onsite mixed and CHGCAR
   VOSKOWN=      0    Vosko Wilk Nusair interpolation
   ROPT   =   -0.00050  -0.00050
 Ionic relaxation
   EDIFFG = 0.1E-03   stopping-criterion for IOM
   NSW    =      0    number of steps for IOM
   NBLOCK =      1;   KBLOCK =      1    inner block; outer block
   IBRION =     -1    ionic relax: 0-MD 1-quasi-New 2-CG
   NFREE  =      0    steps in history (QN), initial steepest desc. (CG)
   ISIF   =      2    stress and relaxation
   IWAVPR =     10    prediction:  0-non 1-charg 2-wave 3-comb
   ISYM   =      2    0-nonsym 1-usesym 2-fastsym
   LCORR  =      T    Harris-Foulkes like correction to forces

   POTIM  = 0.5000    time-step for ionic-motion
   TEIN   =    0.0    initial temperature
   TEBEG  =    0.0;   TEEND  =   0.0 temperature during run
   SMASS  =  -3.00    Nose mass-parameter (am)
[...]
   0.04907981  0.08500873  0.00000000       0.042
   0.07361972  0.09917685  0.00000000       0.083
   0.09815962  0.11334497  0.00000000       0.083
   0.12269953  0.12751309  0.00000000       0.042
   0.07361972  0.12751309  0.00000000       0.042
   0.09815962  0.14168121  0.00000000       0.083
   0.09815962  0.17001745  0.00000000       0.014

 k-points in reciprocal lattice and weights: 38x38x38            Comment
   0.00000000  0.00000000  0.00000000       0.007
   0.08333333  0.00000000  0.00000000       0.042
   0.16666667 -0.00000000  0.00000000       0.042
   0.25000000 -0.00000000  0.00000000       0.042
   0.33333333 -0.00000000  0.00000000       0.042
   0.41666667 -0.00000000  0.00000000       0.042
   0.50000000 -0.00000000  0.00000000       0.021
   0.08333333  0.08333333  0.00000000       0.042
   0.16666667  0.08333333  0.00000000       0.083
   0.25000000  0.08333333  0.00000000       0.083
   0.33333333  0.08333333  0.00000000       0.083
   0.41666667  0.08333333  0.00000000       0.083
   0.16666667  0.16666667  0.00000000       0.042
   0.25000000  0.16666667  0.00000000       0.083
   0.33333333  0.16666667  0.00000000       0.083
   0.41666667  0.16666667  0.00000000       0.042
   0.25000000  0.25000000  0.00000000       0.042
   0.33333333  0.25000000  0.00000000       0.083
   0.33333333  0.33333333  0.00000000       0.014

 position of ions in fractional coordinates (direct lattice)
   0.33333334  0.66666669  0.04865583
   0.66666669  0.33333334  0.27177035
   0.00000000  0.00000000  0.31905762
   0.66666669  0.33333334  0.10128066
   0.00000000  0.00000000  0.00136822
   0.33333334  0.66666669  0.21914518

 position of ions in cartesian coordinates  (Angst):
  -0.00000000  1.96058310  1.21639582
   1.69791477  0.98029155  6.79425877
   0.00000000  0.00000000  7.97644046
   1.69791477  0.98029155  2.53201653
   0.00000000  0.00000000  0.03420557
  -0.00000000  1.96058310  5.47862960

 k-point   1 :   0.0000 0.0000 0.0000  plane waves:    9337
 k-point   2 :   0.0833 0.0000 0.0000  plane waves:    9319
 k-point   3 :   0.1667-0.0000 0.0000  plane waves:    9346
 k-point   4 :   0.2500-0.0000 0.0000  plane waves:    9380
 k-point   5 :   0.3333-0.0000 0.0000  plane waves:    9368
 k-point   6 :   0.4167-0.0000 0.0000  plane waves:    9392
 k-point   7 :   0.5000-0.0000 0.0000  plane waves:    9404
 k-point   8 :   0.0833 0.0833 0.0000  plane waves:    9329
 k-point   9 :   0.1667 0.0833 0.0000  plane waves:    9370
 k-point  10 :   0.2500 0.0833 0.0000  plane waves:    9386
 k-point  11 :   0.3333 0.0833 0.0000  plane waves:    9401
 k-point  12 :   0.4167 0.0833 0.0000  plane waves:    9414
 k-point  13 :   0.1667 0.1667 0.0000  plane waves:    9405
 k-point  14 :   0.2500 0.1667 0.0000  plane waves:    9419
 k-point  15 :   0.3333 0.1667 0.0000  plane waves:    9422
 k-point  16 :   0.4167 0.1667 0.0000  plane waves:    9425
 k-point  17 :   0.2500 0.2500 0.0000  plane waves:    9407
 k-point  18 :   0.3333 0.2500 0.0000  plane waves:    9434
 k-point  19 :   0.3333 0.3333 0.0000  plane waves:    9429

 maximum and minimum number of plane-waves per node :      2373     2309

 maximum number of plane-waves:      9434
 maximum index in each direction:
   IXMAX=    7   IYMAX=    7   IZMAX=   51
   IXMIN=   -7   IYMIN=   -7   IZMIN=  -51

 real space projection operators:
  max/ min on nodes  :        906.62        891.09

 parallel 3D FFT for wavefunctions:
    minimum data exchange during FFTs selected (reduces bandwidth)
 parallel 3D FFT for charge:
    minimum data exchange during FFTs selected (reduces bandwidth)

 Broyden mixing: mesh for mixing (old mesh)
   NGX = 15   NGY = 15   NGZ =103
  (NGX  = 48   NGY  = 48   NGZ  =320)
  gives a total of  23175 points

 initial charge density was supplied:
 charge density of overlapping atoms calculated
 number of electron      20.0000000 magnetization
 keeping initial charge density in first step

 Maximum index for non-local projection operator         1823
 Maximum index for augmentation-charges         3576 (set IRDMAX)

 First call to EWALD:  gamma=   0.281
 Maximum number of real-space cells 5x 5x 1
 Maximum number of reciprocal cells 2x 2x 9

--------------------------------------- Iteration      1(   1)  ---------------------------------------

 BZINTS: Fermi energy:    9.541775;   20.000000 electrons
         Band energy: 0.655715E+02;  BLOECHL correction:   -0.088139

 eigenvalue-minimisations  :  1520
 total energy-change (2. order) : 0.1561685E+03  (-0.5596611E+03)
 number of electron      20.0000000 magnetization
 augmentation part       20.0000000 magnetization

 Free energy of the ion-electron system (eV)
  alpha Z        PSCENC =        11.25570991
  Ewald energy   TEWEN  =      2203.49835729
  -Hartree energ DENC   =     -2633.01632931
  -exchange      EXHF   =         0.00000000
  -V(xc)+E(xc)   XCENC  =      -319.41419644
  PAW double counting   =       725.05592156     -369.65349372
  entropy T*S    EENTRO =         0.00000000
  eigenvalues    EBANDS =        65.57149781
  atomic energy  EATOM  =       472.87099920
  Solvation  Ediel_sol  =         0.00000000
  free energy    TOTEN  =       156.16846630 eV

  energy without entropy =      156.16846630  energy(sigma->0) =      156.16846630

[...]

 BZINTS: Fermi energy:    0.687756;   20.000000 electrons
         Band energy:-0.945068E+02;  BLOECHL correction:   -0.047985

 eigenvalue-minimisations  :  1520
 total energy-change (2. order) :-0.1600783E+03  (-0.1385415E+03)
 number of electron      20.0000000 magnetization
 augmentation part       20.0000000 magnetization

[...]

 Broyden mixing:
  rms(total) = 0.22747E+01    rms(broyden)= 0.22747E+01
  rms(prec ) = 0.25006E+01
  weight for this iteration     100.00

[...]

 eigenvalues of (default mixing * dielectric matrix)
  average eigenvalue GAMMA=   0.8542
  0.8542

[...]

 eigenvalue-minimisations  :  1673
 total energy-change (2. order) :-0.1509323E-04  (-0.8687063E-06)
 number of electron      20.0000001 magnetization
 augmentation part        1.9037129 magnetization

 Broyden mixing:
  rms(total) = 0.41264E-03    rms(broyden)= 0.41264E-03
  rms(prec ) = 0.57290E-03
  weight for this iteration     100.00

 eigenvalues of (default mixing * dielectric matrix)
  average eigenvalue GAMMA=   1.6152
  3.9519  2.5853  2.3200  2.3200  0.3955  1.3779  0.6683  1.1574  1.0732  0.9588
  0.9588

[...]

--------------------------------------- Iteration      1(  17)  ---------------------------------------

[...]

 eigenvalue-minimisations  :  1577
 total energy-change (2. order) : 0.6383051E-05  (-0.3745947E-06)
 number of electron      20.0000001 magnetization
 augmentation part        1.9037129 magnetization

 Free energy of the ion-electron system (eV)
  alpha Z        PSCENC =        11.25570991
  Ewald energy   TEWEN  =      2203.49835729
  -Hartree energ DENC   =     -2691.73094989
  -exchange      EXHF   =         0.00000000
  -V(xc)+E(xc)   XCENC  =      -313.75395507
  PAW double counting   =      1191.71852868     -838.46678617
  entropy T*S    EENTRO =         0.00000000
  eigenvalues    EBANDS =       -73.37366288
  atomic energy  EATOM  =       472.87099920
  Solvation  Ediel_sol  =         0.00000000
  free energy    TOTEN  =       -37.98175892 eV

  energy without entropy =      -37.98175892  energy(sigma->0) =      -37.98175892

 average (electrostatic) potential at core
  the test charge radii are     0.6991  1.3152
  (the norm of the test charge is              1.0000)
       1 -53.7545       2 -53.7542       3 -47.5194       4 -47.3304       5 -47.5197
       6 -47.3303

 E-fermi :  -0.0823     XC(G=0):  -5.2047     alpha+bet : -5.1009

 k-point     1 :       0.0000    0.0000    0.0000
  band No.  band energies     occupation
      1     -10.5212      2.00000
      2     -10.4636      2.00000
      3      -4.7379      2.00000
      4      -4.1503      2.00000
      5      -2.0826      2.00000
      6      -1.5866      2.00000
      7      -1.5866      2.00000
      8      -1.5581      2.00000
      9      -1.5581      2.00000
     10      -0.8927      2.00000
     11      -0.4742      2.00000
     12       1.2472      0.00000
     13       1.7175      0.00000
     14       1.7175      0.00000
     15       1.7815      0.00000
     16       1.7815      0.00000
     17       1.7891      0.00000
     18       2.4381      0.00000
     19       2.4381      0.00000
     20       2.5067      0.00000
     21       2.5067      0.00000
     22       3.1403      0.00000
     23       3.1403      0.00000
     24       3.5061      0.00000
     25       3.5061      0.00000
     26       3.5212      0.00000
     27       3.6080      0.00000
     28       3.9257      0.00000
     29       3.9798      0.00000
     30       4.6819      0.00000
     31       4.8147      0.00000
     32       5.4182      0.00000
     33       5.4182      0.00000
     34       5.5686      0.00000
     35       5.5686      0.00000
     36       5.8502      0.00000
     37       5.9974      0.00000
     38       7.4558      0.00000
     39       7.8495      0.00000
     40       9.0945      0.00000

[...]

 k-point    19 :       0.3333    0.3333    0.0000
  band No.  band energies     occupation
      1      -9.1986      2.00000
      2      -9.1984      2.00000
      3      -3.1199      2.00000
      4      -3.1197      2.00000
      5      -2.9847      2.00000
      6      -2.9754      2.00000
      7      -2.1499      2.00000
      8      -2.1497      2.00000
      9      -0.4024      2.00000
     10       0.2989      0.00000
     11       0.2992      0.00000
     12       0.3919      0.00000
     13       0.3919      0.00000
     14       1.4807      0.00000
     15       1.4809      0.00000
     16       1.4811      0.00000
     17       2.4613      0.00000
     18       2.7349      0.00000
     19       3.1548      0.00000
     20       3.1550      0.00000
     21       3.2694      0.00000
     22       3.7584      0.00000
     23       3.7585      0.00000
     24       4.0502      0.00000
     25       4.2778      0.00000
     26       4.2780      0.00000
     27       4.8712      0.00000
     28       5.0408      0.00000
     29       5.0410      0.00000
     30       5.1292      0.00000
     31       5.8379      0.00000
     32       5.8379      0.00000
     33       6.7946      0.00000
     34       6.7947      0.00000
     35       7.0316      0.00000
     36       7.1231      0.00000
     37       7.1233      0.00000
     38       7.8981      0.00000
     39       8.6164      0.00000
     40       9.1302      0.00000

 soft charge-density along one line, spin component           1
         0         1         2         3         4         5         6         7         8         9
 total charge-density along one line

------------------------ aborting loop because EDIFF is reached ----------------------------------------

 total charge

# of ion       s       p       d       tot
    1        0.880   1.466   0.000   2.346
    2        0.880   1.466   0.000   2.346
    3        0.441   0.626   1.229   2.297
    4        0.416   0.657   1.155   2.229
    5        0.441   0.626   1.229   2.297
    6        0.416   0.657   1.155   2.229
tot          3.476   5.498   4.770  13.744

         DFTD3 V3.0 Rev 1
 IVDW         = 11
 DF pbe
 parameters
 VDW_S6       =    1.0000
 VDW_S8       =    0.7220
 VDW_SR       =    1.2170
 rs18     =    1.0000
 alpha6   =   14.0000
 alpha8   =   16.0000
 k1-k3    =   16.0000    1.3333   -4.0000
 VDW_RADIUS   =   50.2022 A
 VDW_CNRADIUS =   21.1671 A
 Edisp (eV)   -0.92286

 E6    (eV) :    -0.3823
 E8    (eV) :    -0.5406
 % E8        : 58.58

  FORCE on cell =-STRESS in cart. coord.  units (eV):
  Direction    XX          YY          ZZ          XY          YZ          ZX
  Alpha Z    11.25571    11.25571    11.25571
  Ewald    2574.99609  2574.99609 -2946.49408     0.00000     0.00000    -0.00000
  Hartree  2646.59785  2646.59785 -2601.43716     0.00000     0.00000    -0.00000
  E(xc)     -73.72559   -73.72559   -72.50150     0.00000    -0.00000     0.00000
  Local   -5392.86581 -5392.86582  5379.67646    -0.00001    -0.00000     0.00000
  n-local    38.10484    39.26971    35.66626    -5.02920    -0.84427    -2.80700
  augment    22.78455    22.78456    21.88740     0.00001     0.00000     0.00000
  Kinetic   170.80725   176.47392   172.66878    -1.40769    -1.04444    -4.24373
  Fock        0.00000     0.00000     0.00000     0.00000     0.00000     0.00000
  vdW        -1.12660    -1.12660    -0.74939     0.00000     0.00000    -0.00000
  Total       0.24405     0.24405    -0.02752     0.00000     0.00000     0.00000
  in kB       1.56615     1.56615    -0.17658     0.00000     0.00000     0.00000

 VOLUME and BASIS-vectors are now :
  energy-cutoff  :      650.00
  volume of cell :      249.67
      direct lattice vectors                 reciprocal lattice vectors
     3.395829439  0.000000000  0.000000000     0.294478865  0.170017452  0.000000000
    -1.697914720  2.940874561  0.000000000     0.000000000  0.340034904  0.000000000
     0.000000000  0.000000000 25.000000000     0.000000000  0.000000000  0.040000000

  length of vectors
     3.395829439  3.395829439 25.000000000     0.340034904  0.340034904  0.040000000

 FORCES acting on ions
    electron-ion (+dipol)            ewald-force                    non-local-force                 convergence-correction
   -.107E-06 -.950E-05 0.205E+03   0.747E-06 -.149E-05 -.205E+03   0.694E-17 0.000E+00 -.354E-04   -.469E-10 -.338E-09 0.501E-02
   -.166E-04 -.155E-06 -.205E+03   -.167E-05 -.119E-06 0.205E+03   -.347E-17 0.000E+00 0.354E-04   -.562E-09 -.466E-10 -.504E-02
   -.221E-07 -.950E-06 -.271E+03   0.924E-06 0.612E-06 0.268E+03   -.278E-16 0.000E+00 0.366E+01   0.491E-10 0.575E-10 -.895E-03
   0.141E-05 0.366E-08 0.323E+02   -.830E-06 0.403E-06 -.343E+02   -.555E-16 0.000E+00 0.191E+01   -.728E-10 0.811E-10 0.279E-02
   0.147E-07 -.970E-06 0.271E+03   0.596E-07 0.110E-05 -.268E+03   0.278E-16 0.000E+00 -.366E+01   0.638E-10 0.478E-10 0.883E-03
   -.148E-07 0.811E-06 -.323E+02   0.770E-06 -.507E-06 0.343E+02   0.555E-16 0.000E+00 -.191E+01   0.145E-09 -.437E-10 -.282E-02
   -.153E-04 -.108E-04 0.542E-03   0.176E-14 -.137E-14 -.213E-13   0.347E-17 0.000E+00 0.133E-14   -.424E-09 -.242E-09 -.627E-04

 POSITION                                       TOTAL-FORCE (eV/Angst)
     -0.00000      1.96058      1.21640        -0.000000      0.000000      0.002058
      1.69791      0.98029      6.79426         0.000000     -0.000000     -0.002058
      0.00000      0.00000      7.97644         0.000000      0.000000      0.004749
      1.69791      0.98029      2.53202         0.000000      0.000000     -0.002949
      0.00000      0.00000      0.03421        -0.000000      0.000000     -0.004749
     -0.00000      1.96058      5.47863         0.000000      0.000000      0.002949
    total drift:                               -0.000015     -0.000011      0.000480

  FREE ENERGIE OF THE ION-ELECTRON SYSTEM (eV)
  free  energy   TOTEN  =       -38.90462165 eV

  energy  without entropy=      -38.90462165  energy(sigma->0) =      -38.90462165

 stress matrix after NEB project (eV)
      0.24405      0.00000      0.00000
      0.00000      0.24405      0.00000
     -0.00000      0.00000     -0.02752
  FORCES: max atom, RMS     0.004749    0.003439
  FORCE total and by dimension    0.008425    0.004749
  Stress total and by dimension    0.346239    0.244053
|           W    W    AA    RRRRR   N    N  II  N    N   GGGG   !!!           |
|           W    W   A  A   R    R  NN   N  II  NN   N  G    G  !!!           |
|           W    W  A    A  R    R  N N  N  II  N N  N  G       !!!           |
|           W WW W  AAAAAA  RRRRR   N  N N  II  N  N N  G  GGG   !            |
|           WW  WW  A    A  R   R   N   NN  II  N   NN  G    G                |
|           W    W  A    A  R    R  N    N  II  N    N   GGGG   !!!           |
|     Tetrahedron method does not include variations of the Fermi             |
|     occupations, so forces and stress will be inaccurate. We suggest        |
|     using a different smearing scheme ISMEAR = 1 or 2 for metals in         |
|     relaxations.                                                            |

 total charge

# of ion       s       p       d       tot
    1        0.880   1.466   0.000   2.346
    2        0.880   1.466   0.000   2.346
    3        0.441   0.626   1.229   2.297
    4        0.416   0.657   1.155   2.229
    5        0.441   0.626   1.229   2.297
    6        0.416   0.657   1.155   2.229
tot          3.476   5.498   4.770  13.744

 BZINTS: Fermi energy:   -0.082313;   20.000000 electrons
         Band energy:-0.733737E+02;  BLOECHL correction:   -0.015697